10613.6,9398.73,8883.62,8453.27,8171.43,8087.63,7844.03,7741.38,7419.19,7263.28,6688.24,6020.9,5902.14,5538.37,5538.37,5452.68,5452.68,5419.05,5414.26,5177.18,5087.96,5087.96,4876.55,4799.83,4690.1,4690.1,4539.98,4539.98,4504.1,4401.6,4341.23,4293.15,4236.54,4223.76,4179.23,4082.17,4082.17,4011.46,3915.49,3784.56,3766.23,3677.37,3567.48,3535.76,3535.76,3496.76,3462.37,3427.75,3427.75,3392.33,3271.36,3271.36,3267.27,3212.45,3206.67,3168.08,3168.08,3119.56,3053.25,3053.25,3005.12,2986.08,2906.64,2888.95,2857.72,2817.6,2808.65,2804.87,2762.54,2753.95,2745.8,2703.14,2703.14,2703.14,2703.14,2629.67,2591.85,2583.74,2553.26,2553.26,2512.11,2512.11,2494.62,2479.01,2447.87,2381.61,2346.76,2344.08,2344.08,2292.57,2292.57,2292.57,2268.91,2172.97,2172.97,2134.59,2105.73,2057.6,2047.19,2027.11,2027.11,1995.7,1977.06,1960.74,1960.74,1960.74,1942.09,1942.09,1917.07,1917.07,1917.07,1914.69,1901.42,1891.09,1891.09,1890.42,1888.97,1877.58,1851.31,1851.31,1845.85,1844.47,1837.8,1812.08,1807.14,1793.03,1786.9,1786.47,1786.47,1754.45,1754.45,1754.45,1750.12,1735.06,1735.06,1735.06,1735.06,1730.71,1729.57,1729.57,1729.57,1729.57,1729.22,1729.22,1726.67,1703.81,1703.81,1703.81,1700.59,1692.81,1692.81,1691.02,1687.75,1687.75,1687.75,1687.75,1685.2,1685.2,1685.2,1685.2,1685.2,1685.2,1685.2,1685.2,1685.2,1685.2,1685.2,1685.2,1685.2,1685.2,1685.2,1685.2,1685.2,1685.2,1685.2,1685.2,1685.2,1685.2,1685.2,1685.2,1685.2,1685.2,1685.2,1685.2,1685.2,1685.2,1685.2,1685.2,1685.2,1685.2,1685.2,1685.2,1685.2,1685.2,1685.2,1685.2,1685.2,1685.2,1685.2,1685.2,1685.2,1685.2,1685.2,1685.2,1685.2,1685.2,1685.2,1685.2,1685.2,1685.2,1685.2,1685.2,1685.2,1685.2,1685.2,1685.2,1685.2,1685.2,1685.2,1685.2,1685.2,1685.2,1685.2,1685.2,1685.2,1685.2,1685.2,1685.2,1685.2,1685.2,1685.2,1685.2,1685.2,1685.2,1685.2,1685.2,1685.2,1685.2,1685.2,1685.2,1685.2,1685.2,1685.2,1685.2,1685.2,1685.2,1685.2,1685.2,1685.2,1685.2,1685.2,1685.2,1685.2,1685.2,1685.2,1685.2,1685.2,1685.2,1685.2,1685.2,1685.2,1685.2,1685.2,1685.2,1685.2,1685.2,1685.2,1685.2,1685.2,1685.2,1685.2,1685.2,1685.2,1685.2,1685.2,1685.2,1685.2,1685.2,1685.2,1685.2,1685.2,1685.2,1685.2,1685.2,1685.2,1685.2,1685.2,1685.2,1685.2,1685.2,1685.2,1685.2,1685.2,1685.2,1685.2,1685.2,1685.2,1685.2,1685.2,1685.2,1685.2,1685.2,1685.2,1685.2,1685.2,1685.2,1685.2,1685.2,1685.2,1685.2,1685.2,1685.2,1685.2,1685.2,1685.2,1685.2,1685.2,1685.2,1685.2,1685.2,1685.2,1685.2,1685.2,1685.2,1685.2,1685.2,1685.2,1685.2,1685.2,1685.2,1685.2,1685.2,1685.2,1685.2,1685.2,1685.2,1685.2,1685.2,1685.2,1685.2,1685.2,1685.2,1685.2,1685.2,1685.2,1685.2,1685.2,1685.2,1685.2,1685.2,1685.2,1685.2,1685.2,1685.2,1685.2,1685.2,1685.2,1685.2,1685.2,1685.2,1685.2,1685.2,1685.2,1685.2,1685.2,1685.2,1685.2,1685.2,1685.2,1685.2,1685.2,1685.2,1685.2,1685.2,1685.2,1685.2,1685.2,1685.2,1685.2,1685.2,1685.2,1685.2,1685.2,1685.2,1685.2,1685.2,1685.2,1685.2,1685.2,1685.2,1685.2,1685.2,1685.2,1685.2,1685.2,1685.2,1685.2,1685.2,1685.2,1685.2,1685.2,1685.2,1685.2,1685.2,1685.2,1685.2,1685.2,1685.2,1685.2,1685.2,1685.2,1685.2,1685.2,1685.2,1685.2,1685.2,1685.2,1685.2,1685.2,1685.2,1685.2,1685.2,1685.2,1685.2,1685.2,1685.2,1685.2,1685.2,1685.2,1685.2,1685.2,1685.2,1685.2,1685.2,1685.2,1685.2,1685.2,1685.2,1685.2,1685.2,1685.2,1685.2,1685.2,1685.2,1685.2,1685.2,1685.2,1685.2,1685.2,1685.2,1685.2,1685.2,1685.2,1685.2,1685.2,1685.2,1685.2,1685.2,1685.2,1685.2,1685.2,1685.2,1685.2,1685.2,1685.2,1685.2,1685.2,1685.2,1685.2,1685.2,1685.2,1685.2,1685.2,1685.2,1685.2,1685.2,1685.2,1685.2,1685.2,1685.2,1685.2,1685.2,1685.2,1685.2,1685.2,1685.2,1685.2,1685.2,1685.2,1685.2,1685.2,1685.2,1685.2,1685.2,1685.2,1685.2,1685.2,1685.2,1685.2,1685.2,1685.2,1685.2,1685.2,1685.2,1685.2,1685.2,1685.2,1685.2,1685.2,1685.2,1685.2,1685.2,1685.2,1685.2,1685.2,1685.2,1685.2,1685.2,1685.2,1685.2,1685.2,1685.2,1685.2,1685.2,1685.2,1685.2,1685.2,1685.2,1685.2,1685.2,1685.2,1685.2,1685.2,1685.2,1685.2,1685.2,1685.2,1685.2,1685.2,1685.2,1685.2,1685.2,1685.2,1685.2,1685.2,1685.2,1685.2,1685.2,1685.2,1685.2,1685.2,1685.2,1685.2,1685.2,1685.2,1685.2,1685.2,1685.2,1685.2,1685.2,1685.2,1685.2,1685.2,1685.2,1685.2,1685.2,1685.2,1685.2,1685.2,1685.2,1685.2,1685.2,1685.2,1685.2,1685.2,1685.2,1685.2,1685.2,1685.2,1685.2,1685.2,1685.2,1685.2,1685.2,1685.2,1685.2,1685.2,1685.2,1685.2,1685.2,1685.2,1685.2,1685.2,1685.2,1685.2,1685.2,1685.2,1685.2,1685.2,1685.2,1685.2,1685.2,1685.2,1685.2,1685.2,1685.2,1685.2,1685.2,1685.2,1685.2,1685.2,1685.2,1685.2,1685.2,1685.2,1685.2,1685.2,1685.2,1685.2,1685.2,1685.2,1685.2,1685.2,1685.2,1685.2,1685.2,1685.2,1685.2,1685.2,1685.2,1685.2,1685.2,1685.2,1685.2,1685.2,1685.2,1685.2,1685.2,1685.2,1685.2,1685.2,1685.2,1685.2,1685.2,1685.2,1685.2,1685.2,1685.2,1685.2,1685.2,1685.2,1685.2,1685.2,1685.2,1685.2,1685.2,1685.2,1685.2,1685.2,1685.2,1685.2,1681.75,1681.75,1672.68,1672.68,1672.68,1672.68,1669.96,1669.96,1669.96,1669.96,1669.96,1669.96,1669.96,1669.96,1669.96,1669.96,1669.96,1669.96,1669.96,1669.96,1669.96,1669.96,1669.96,1669.96,1669.96,1669.96,1669.96,1669.96,1669.96,1669.96,1669.96,1669.96,1669.96,1669.96,1669.96,1669.96,1669.96,1669.96,1669.96,1669.96,1669.96,1669.96,1669.96,1669.96,1669.96,1669.96,1669.96,1669.96,1669.96,1669.96,1669.96,1669.96,1669.96,1669.96,1669.96,1669.96,1669.96,1669.96,1669.96,1669.96,1669.96,1669.96,1669.96,1669.96,1669.96,1669.96,1669.96,1669.96,1669.96,1669.96,1669.96,1669.96,1669.96,1669.96,1669.96,1669.96,1669.96,1669.96,1669.96,1669.96,1669.96,1669.96,1669.96,1669.96,1669.96,1669.96,1669.96,1669.96,1669.96,1669.96,1669.96,1669.96,1669.96,1669.96,1669.96,1669.96,1669.96,1669.96,1669.96,1669.96,1669.96,1669.96,1669.96,1669.96,1669.96,1669.96,1669.96,1669.96,1669.96,1669.96,1669.96,1669.96,1669.96,1669.96,1669.96,1669.96,1669.96,1669.96,1669.96,1669.96,1669.96,1669.96,1669.96,1669.96,1669.96,1669.96,1669.96,1669.96,1669.96,1669.96,1669.96,1669.96,1669.96,1669.96,1669.96,1669.96,1669.96,1669.96,1669.96,1669.96,1669.96,1669.96,1669.96,1669.96,1669.96,1669.96,1669.96,1669.96,1669.96,1669.96,1669.96,1669.96,1669.96,1669.96,1669.96,1669.96,1669.96,1669.96,1669.96,1669.96,1669.96,1669.96,1669.96,1669.96,1669.96,1669.96,1669.96,1669.96,1669.96,1669.96,1669.96,1669.96,1669.96,1669.96,1669.96,1669.96,1669.96,1669.96,1669.96,1669.96,1669.96,1669.96,1669.96,1669.96,1669.96,1669.96,1669.96,1669.96,1669.96,1669.96,1669.96,1669.96,1669.96,1669.96,1669.96,1669.96,1669.96,1669.96,1669.96,1669.96,1669.96,1669.96,1669.96,1669.96,1669.96,1669.96,1669.96,1669.96,1669.96,1669.96,1669.96,1669.96,1669.96,1669.96,1669.96,1669.96,1669.96,1669.96,1669.96,1669.96,1669.96,1669.96,1669.96,1669.96,1669.96,1669.96,1669.96,1669.96,1669.96,1669.96,1669.96,1669.96,1669.96,1669.96,1669.96,1669.96,1669.96,1669.96,1669.96,1669.96,1669.96,1669.96,1669.96,1669.96,1669.96,1669.96,1669.96,1669.96,1669.96,1669.96,1669.96,1669.96,1669.96,1669.96,1669.96,1669.96,1669.96,1669.96,1669.96,1669.96,1669.96,1669.96,1669.96,1669.96,1669.96,1669.96,1669.96,1669.96,1669.96,1669.96,1669.96,1669.96,1669.96,1669.96,1669.96,1669.96,1669.96,1669.96,1669.96,1669.96,1669.96,1669.96,1669.96,1669.96,1669.96,1669.96,1669.96,1669.96,1669.96,1669.96,1669.96,1669.96,1669.96,1669.96,1669.96,1669.96,1669.96,1669.96,1669.96,1669.96,1669.96,1669.96,1669.96,1669.96,1669.96,1669.96,1669.96,1669.96,1669.96,1669.96,1669.96,1669.96,1669.96,1669.96,1669.96,1669.96,1669.96,1669.96,1669.96,1669.96,1669.96,1669.96,1669.96,1669.96,1669.96,1669.96,1669.96,1669.96,1669.96,1669.96,1669.96,1669.96,1669.96,1669.96,1669.96,1669.96,1669.96,1669.96,1669.96,1669.96,1669.96,1669.96,1669.96,1669.96,1669.96,1669.96,1669.96,1669.96,1669.96,1669.96,1669.96,1669.96,1669.96,1669.96,1669.96,1669.96,1669.96,1669.96,1669.96,1669.96,1669.96,1669.96,1669.96,1669.96,1669.96,1669.96,1669.96,1669.96,1669.96,1669.96,1669.96,1669.96,1669.96,1669.96,1669.96,1669.96,1669.96,1669.96,1669.96,1669.96,1669.96,1669.96,1669.96,1669.96,1669.96,1669.96,1669.96,1669.96,1669.96,1669.96,1669.96,1669.96,1669.96,1669.96,1669.96,1669.96,1669.96,1669.96,1669.96,1669.96,1669.96,1669.96,1669.96,1669.96,1669.96,1669.96,1669.96,1669.96,1669.96,1669.96,1669.96,1669.96,1669.96,1669.96,1669.96,1669.96,1669.96,1669.96,1669.96,1669.96,1669.96,1669.96,1669.96,1669.96,1669.96,1669.96,1669.96,1669.96,1669.96,1669.96,1669.96,1669.96,1669.96,1669.96,1669.96,1669.96,1669.96,1669.96,1669.96,1669.96,1669.96,1669.96,1669.96,1669.96,1669.96,1669.96,1669.96,1669.96,1669.96,1669.96,1669.96,1669.96,1669.96,1669.96,1669.96,1669.96,1669.96,1669.96,1669.96,1669.96,1669.96,1669.96,1669.96,1669.96,1669.96,1669.96,1669.96,1669.96,1669.96,1669.96,1669.96,1669.96,1669.96,1669.96,1669.96,1669.96,1669.96,1669.96,1669.96,1669.96,1669.96,1669.96,1669.96,1669.96,1669.96,1669.96,1669.96,1669.96,1669.96,1669.96,1669.96,1669.96,1669.96,1669.96,1669.96,1661.76,1661.76,1661.76,1661.76,1656.86,1656.86,1656.86,1655.07,1647.34,1642.58,1642.58,1639.75,1639.75,1639.75,1639.75,1639.75,1639.75,1639.75,1639.75,1628,1628,1620.41,1620.41,1620.41,1620.41,1620.41,1620.41,1620.41,1620.41,1620.41,1620.41,1620.41,1620.41,1620.41,1620.41,1620.41,1620.41,1620.41,1620.41,1620.41,1620.41,1620.41,1620.41,1620.41,1620.41,1620.41,1620.41,1620.41,1620.41,1620.41,1620.41,1620.41,1620.41,1620.41,1620.41,1620.41,1620.41,1620.41,1620.41,1620.41,1620.41,1620.41,1620.41,1620.41,1620.41,1620.41,1620.41,1620.41,1620.41,1620.41,1620.41,1620.41,1620.41,1620.41,1620.41,1620.41,1620.41,1620.41,1620.41,1620.41,1620.41,1620.41,1620.41,1620.41,1620.41,1620.41,1620.41,1620.41,1620.41,1620.41,1620.41,1620.41,1620.41,1620.41,1620.41,1620.41,1620.41,1620.41,1620.41,1620.41,1620.41,1620.41,1620.41,1620.41,1620.41,1620.41,1620.41,1620.41,1620.41,1620.41,1620.41,1620.41,1620.41,1620.41,1620.41,1620.41,1620.41,1620.41,1620.41,1620.41,1620.41,1620.41,1620.41,1620.41,1620.41,1620.41,1620.41,1620.41,1620.41,1620.41,1620.41,1620.41,1620.41,1620.41,1620.41,1620.41,1620.41,1620.41,1620.41,1620.41,1620.41,1620.41,1620.41,1620.41,1620.41,1620.41,1620.41,1620.41,1620.41,1620.41,1620.41,1620.41,1620.41,1620.41,1620.41,1620.41,1620.41,1620.41,1620.41,1620.41,1620.41,1620.41,1620.41,1620.41,1620.41,1620.41,1620.41,1620.41,1620.41,1620.41,1620.41,1620.41,1620.41,1620.41,1620.41,1620.41,1620.41,1620.41,1620.41,1620.41,1620.41,1620.41,1620.41,1620.41,1620.41,1620.41,1620.41,1620.41,1620.41,1620.41,1620.41,1620.41,1620.41,1620.41,1620.41,1620.41,1620.41,1620.41,1620.41,1620.41,1620.41,1620.41,1620.41,1620.41,1620.41,1620.41,1620.41,1620.41,1620.41,1620.41,1620.41,1620.41,1620.41,1620.41,1620.41,1620.41,1620.41,1620.41,1620.41,1620.41,1620.41,1620.41,1620.41,1620.41,1620.41,1620.41,1620.41,1620.41,1620.41,1620.41,1620.41,1620.41,1620.41,1620.41,1620.41,1620.41,1620.41,1620.41,1620.41,1620.41,1620.41,1620.41,1620.41,1620.41,1620.41,1620.41,1620.41,1620.41,1620.41,1620.41,1620.41,1620.41,1620.41,1620.41,1620.41,1620.41,1620.41,1620.41,1620.41,1620.41,1620.41,1620.41,1620.41,1620.41,1620.41,1620.41,1620.41,1620.41,1620.41,1620.41,1620.41,1620.41,1620.41,1620.41,1620.41,1620.41,1620.41,1620.41,1620.41,1620.41,1620.41,1620.41,1620.41,1620.41,1620.41,1620.41,1620.41,1620.41,1620.41,1620.41,1620.41,1620.41,1620.41,1620.41,1620.41,1620.41,1620.41,1620.41,1620.41,1620.41,1620.41,1620.41,1620.41,1620.41,1620.41,1620.41,1620.41,1620.41,1620.41,1620.41,1620.41,1620.41,1620.41,1620.41,1620.41,1620.41,1620.41,1620.41,1620.41,1620.41,1620.41,1620.41,1620.41,1620.41,1620.41,1620.41,1620.41,1620.41,1620.41,1620.41,1620.41,1620.41,1620.41,1620.41,1620.41,1620.41,1620.41,1620.41,1620.41,1620.41,1620.41,1620.41,1620.41,1620.41,1620.41,1620.41,1620.41,1620.41,1620.41,1620.41,1620.41,1620.41,1620.41,1620.41,1620.41,1620.41,1620.41,1620.41,1620.41,1620.41,1620.41,1620.41,1620.41,1620.41,1620.41,1620.41,1620.41,1620.41,1620.41,1620.41,1620.41,1620.41,1620.41,1620.41,1620.41,1620.41,1620.41,1620.41,1620.41,1620.41,1620.41,1620.41,1620.41,1620.41,1620.41,1620.41,1620.41,1620.41,1620.41,1620.41,1620.41,1620.41,1620.41,1620.41,1620.41,1620.41,1620.41,1620.41,1620.41,1620.41,1620.41,1620.41,1620.41,1620.41,1620.41,1620.41,1620.41,1620.41,1620.41,1620.41,1620.41,1620.41,1620.41,1620.41,1620.41,1620.41,1620.41,1620.41,1620.41,1620.41,1620.41,1620.41,1620.41,1620.41,1620.41,1620.41,1620.41,1620.41,1620.41,1620.41,1620.41,1620.41,1620.41,1620.41,1620.41,1620.41,1620.41,1620.41,1620.41,1620.41,1620.41,1620.41,1620.41,1620.41,1620.41,1620.41,1620.41,1620.41,1620.41,1620.41,1620.41,1620.41,1620.41,1620.41,1620.41,1620.41,1620.41,1620.41,1620.41,1620.41,1620.41,1620.41,1620.41,1620.41,1620.41,1620.41,1620.41,1620.41,1620.41,1620.41,1620.41,1620.41,1620.41,1620.41,1620.41,1620.41,1620.41,1620.41,1620.41,1620.41,1620.41,1620.41,1620.41,1620.41,1620.41,1620.41,1620.41,1620.41,1620.41,1620.41,1620.41,1620.41,1620.41,1620.41,1620.41,1620.41,1620.41,1620.41,1620.41,1620.41,1620.41,1620.41,1620.41,1620.41,1620.41,1620.41,1620.41,1620.41,1620.41,1620.41,1620.41,1620.41,1620.41,1620.41,1620.41,1620.41,1620.41,1620.41,1620.41,1620.41,1620.41,1620.41,1620.41,1620.41,1620.41,1620.41,1620.41,1620.41,1620.41,1620.41,1620.41,1620.41,1620.41,1620.41,1620.41,1620.41,1620.41,1620.41,1620.41,1620.41,1620.41,1620.41,1620.41,1620.41,1620.41,1620.41,1620.41,1620.41,1620.41,1620.41,1620.41,1620.41,1620.41,1620.41,1620.41,1620.41,1620.41,1620.41,1620.41,1620.41,1620.41,1620.41,1620.41,1620.41,1620.41,1620.41,1620.41,1620.41,1620.41,1620.41,1620.41,1620.41,1620.41,1620.41,1620.41,1620.41,1620.41,1620.41,1620.41,1620.41,1620.41,1620.41,1620.41,1620.41,1620.41,1620.41,1620.41,1620.41,1620.41,1620.41,1620.41,1620.41,1620.41,1620.41,1620.41,1620.41,1620.41,1620.41,1620.41,1620.41,1620.41,1620.41,1620.41,1620.41,1620.41,1620.41,1620.41,1620.41,1620.41,1620.41,1620.41,1620.41,1620.41,1620.41,1620.41,1620.41,1620.41,1620.41,1620.41,1620.41,1620.41,1620.41,1620.41,1620.41,1620.41,1620.41,1620.41,1620.41,1620.41,1620.41,1620.41,1620.41,1620.41,1620.41,1620.41,1620.41,1620.41,1620.41,1620.41,1620.41,1620.41,1620.41,1620.41,1620.41,1620.41,1620.41,1620.41,1620.41,1620.41,1620.41,1620.41,1620.41,1620.41,1620.41,1620.41,1620.41,1620.41,1620.41,1620.41,1620.41,1620.41,1620.41,1620.41,1620.41,1620.41,1620.41,1620.41,1620.41,1620.41,1620.41,1620.41,1620.41,1620.41,1620.41,1620.41,1620.41,1620.41,1620.41,1620.41,1620.41,1620.41,1620.41,1620.41,1620.41,1620.41,1620.41,1620.41,1620.41,1620.41,1620.41,1620.41,1620.41,1620.41,1620.41,1620.41,1620.41,1620.41,1620.41,1620.41,1620.41,1620.41,1620.41,1620.41,1620.41,1620.41,1620.41,1620.41,1620.41,1620.41,1620.41,1620.41,1620.41,1620.41,1620.41,1620.41,1620.41,1620.41,1620.41,1620.41,1620.41,1620.41,1620.41,1620.41,1620.41,1620.41,1620.41,1620.41,1620.41,1620.41,1620.41,1620.41,1620.41,1620.41,1620.41,1620.41,1620.41,1620.41,1620.41,1620.41,1620.41,1620.41,1620.41,1620.41,1620.41,1620.41,1620.41,1620.41,1620.41,1620.41,1620.41,1620.41,1620.41,1620.41,1620.41,1620.41,1620.41,1620.41,1620.41,1620.41,1620.41,1620.41,1620.41,1620.41,1620.41,1620.41,1620.41,1620.41,1620.41,1620.41,1620.41,1620.41,1620.41,1620.41,1620.41,1620.41,1620.41,1620.41,1620.41,1620.41,1620.41,1620.41,1620.41,1620.41,1620.41,1620.41,1620.41,1620.41,1620.41,1620.41,1620.41,1620.41,1620.41,1620.41,1620.41,1620.41,1620.41,1620.41,1620.41,1620.41,1620.41,1620.41,1620.41,1620.41,1620.41,1620.41,1620.41,1620.41,1620.41,1620.41,1620.41,1620.41,1620.41,1620.41,1620.41,1620.41,1620.41,1620.41,1620.41,1620.41,1620.41,1620.41,1620.41,1620.41,1620.41,1620.41,1620.41,1620.41,1620.41,1620.41,1620.41,1620.41,1620.41,1620.41,1620.41,1620.41,1620.41,1620.41,1620.41,1620.41,1620.41,1620.41,1620.41,1620.41,1620.41,1620.41,1620.41,1620.41,1620.41,1620.41,1620.41,1620.41,1620.41,1620.41,1620.41,1620.41,1620.41,1620.41,1620.41,1620.41,1620.41,1620.41,1620.41,1620.41,1620.41,1620.41,1620.41,1620.41,1620.41,1620.41,1620.41,1620.41,1620.41,1620.41,1620.41,1620.41,1620.41,1620.41,1620.41,1620.41,1620.41,1620.41,1620.41,1620.41,1620.41,1620.41,1620.41,1620.41,1620.41,1620.41,1620.41,1620.41,1620.41,1620.41,1620.41,1620.41,1620.41,1620.41,1620.41,1620.41,1620.41,1620.41,1620.41,1620.41,1620.41,1620.41,1620.41,1620.41,1620.41,1620.41,1620.41,1620.41,1620.41,1620.41,1620.41,1620.41,1620.41,1620.41,1620.41,1620.41,1620.41,1620.41,1620.41,1620.41,1620.41,1620.41,1620.41,1620.41,1620.41,1620.41,1620.41,1620.41,1620.41,1620.41,1620.41,1620.41,1620.41,1620.41,1620.41,1620.41,1620.41,1620.41,1620.41,1620.41,1620.41,1620.41,1620.41,1620.41,1620.41,1620.41,1620.41,1620.41,1620.41,1620.41,1620.41,1620.41,1620.41,1620.41,1620.41,1620.41,1620.41,1620.41,1620.41,1620.41,1620.41,1620.41,1620.41,1620.41,1620.41,1620.41,1620.41,1620.41,1620.41,1620.41,1620.41,1620.41,1620.41,1620.41,1620.41,1620.41,1620.41,1620.41,1620.41,1620.41,1620.41,1620.41,1620.41,1620.41,1620.41,1620.41,1620.41,1620.41,1620.41,1620.41,1620.41,1620.41,1620.41,1620.41,1620.41,1620.41,1620.41,1620.41,1620.41,1620.41,1620.41,1620.41,1620.41,1620.41,1620.41,1620.41,1620.41,1620.41,1620.41,1620.41,1620.41,1620.41,1620.41,1620.41,1620.41,1620.41,1620.41,1620.41,1620.41,1620.41,1620.41,1620.41,1620.41,1620.41,1620.41,1620.41,1620.41,1620.41,1620.41,1620.41,1620.41,1620.41,1620.41,1620.41,1620.41,1620.41,1620.41,1620.41,1620.41,1620.41,1620.41,1620.41,1620.41,1620.41,1620.41,1620.41,1620.41,1620.41,1620.41,1620.41,1620.41,1620.41,1620.41,1620.41,1620.41,1620.41,1620.41,1620.41,1620.41,1620.41,1620.41,1620.41,1620.41,1620.41,1620.41,1620.41,1620.41,1620.41,1620.41,1620.41,1620.41,1620.41,1620.41,1620.41,1620.41,1620.41,1620.41,1620.41,1620.41,1620.41,1620.41,1620.41,1620.41,1620.41,1620.41,1620.41,1620.41,1620.41,1620.41,1620.41,1620.41,1620.41,1620.41,1620.41,1620.41,1620.41,1620.41,1620.41,1620.41,1620.41,1620.41,1620.41,1620.41,1620.41,1620.41,1620.41,1620.41,1620.41,1620.41,1620.41,1620.41,1620.41,1620.41,1620.41,1620.41,1620.41,1620.41,1620.41,1620.41,1620.41,1620.41,1620.41,1620.41,1620.41,1620.41,1620.41,1620.41,1620.41,1620.41,1620.41,1620.41,1620.41,1620.41,1620.41,1620.41,1620.41,1620.41,1620.41,1620.41,1620.41,1620.41,1620.41,1620.41,1620.41,1620.41,1620.41,1620.41,1620.41,1620.41,1620.41,1620.41,1620.41,1620.41,1620.41,1620.41,1620.41,1620.41,1620.41,1620.41,1620.41,1620.41,1620.41,1620.41,1620.41,1620.41,1620.41,1620.41,1620.41,1620.41,1620.41,1620.41,1620.41,1620.41,1620.41,1620.41,1620.41,1620.41,1620.41,1620.41,1620.41,1620.41,1620.41,1620.41,1620.41,1620.41,1620.41,1620.41,1620.41,1620.41,1620.41,1620.41,1620.41,1620.41,1620.41,1620.41,1620.41,1620.41,1620.41,1620.41,1620.41,1620.41,1620.41,1620.41,1620.41,1620.41,1620.41,1620.41,1620.41,1620.41,1620.41,1620.41,1620.41,1620.41,1620.41,1620.41,1620.41,1620.41,1620.41,1620.41,1620.41,1620.41,1620.41,1620.41,1620.41,1620.41,1620.41,1620.41,1620.41,1620.41,1620.41,1620.41,1620.41,1620.41,1620.41,1620.41,1620.41,1620.41,1620.41,1620.41,1620.41,1620.41,1620.41,1620.41,1620.41,1620.41,1620.41,1620.41,1620.41,1620.41,1620.41,1620.41,1620.41,1620.41,1620.41,1620.41,1620.41,1620.41,1620.41,1620.41,1620.41,1620.41,1620.41,1620.41,1620.41,1620.41,1620.41,1620.41,1620.41,1620.41,1620.41,1620.41,1620.41,1620.41,1620.41,1620.41,1620.41,1620.41,1620.41,1620.41,1620.41,1620.41,1620.41,1620.41,1620.41,1620.41,1620.41,1620.41,1620.41,1620.41,1620.41,1620.41,1620.41,1620.41,1620.41,1620.41,1620.41,1620.41,1620.41,1620.41,1620.41,1620.41,1620.41,1620.41,1620.41,1620.41,1620.41,1620.41,1620.41,1620.41,1620.41,1620.41,1620.41,1620.41,1620.41,1620.41,1620.41,1620.41,1620.41,1620.41,1620.41,1620.41,1620.41,1620.41,1620.41,1620.41,1620.41,1620.41,1620.41,1620.41,1620.41,1620.41,1620.41,1620.41,1620.41,1620.41,1620.41,1620.41,1620.41,1620.41,1620.41,1620.41,1620.41,1620.41,1620.41,1620.41,1620.41,1620.41,1620.41,1620.41,1620.41,1620.41,1620.41,1620.41,1620.41,1620.41,1620.41,1620.41,1620.41,1620.41,1620.41,1620.41,1620.41,1620.41,1620.41,1620.41,1620.41,1620.41,1620.41,1620.41,1620.41,1620.41,1620.41,1620.41,1620.41,1620.41,1620.41,1620.41,1620.41,1620.41,1620.41,1620.41,1620.41,1620.41,1620.41,1620.41,1620.41,1620.41,1620.41,1620.41,1620.41,1620.41,1620.41,1620.41,1620.41,1620.41,1620.41,1620.41,1620.41,1620.41,1620.41,1620.41,1620.41,1620.41,1620.41,1620.41,1620.41,1620.41,1620.41,1620.41,1620.41,1620.41,1620.41,1620.41,1620.41,1620.41,1620.41,1620.41,1620.41,1620.41,1620.41,1620.41,1620.41,1620.41,1620.41,1620.41,1620.41,1620.41,1620.41,1620.41,1620.41,1620.41,1620.41,1620.41,1620.41,1620.41,1620.41,1620.41,1620.41,1620.41,1620.41,1620.41,1620.41,1620.41,1620.41,1620.41,1620.41,1620.41,1620.41,1620.41,1620.41,1620.41,1620.41,1620.41,1620.41,1620.41,1620.41,1620.41,1620.41,1620.41,1620.41,1620.41,1620.41,1620.41,1620.41,1620.41,1620.41,1620.41,1620.41,1620.41,1620.41,1620.41,1620.41,1620.41,1620.41,1620.41,1620.41,1620.41,1620.41,1620.41,1620.41,1620.41,1620.41,1620.41,1620.41,1620.41,1620.41,1620.41,1620.41,1620.41,1620.41,1620.41,1620.41,1620.41,1620.41,1620.41,1620.41,1620.41,1620.41,1620.41,1620.41,1620.41,1620.41,1620.41,1620.41,1620.41,1620.41,1620.41,1620.41,1620.41,1620.41,1620.41,1620.41,1620.41,1620.41,1620.41,1620.41,1620.41,1620.41,1620.41,1620.41,1620.41,1620.41,1620.41,1620.41,1620.41,1620.41,1620.41,1620.41,1620.41,1620.41,1620.41,1620.41,1620.41,1620.41,1620.41,1620.41,1620.41,1620.41,1620.41,1620.41,1620.41,1620.41,1620.41,1620.41,1620.41,1620.41,1620.41,1620.41,1620.41,1620.41,1620.41,1620.41,1620.41,1620.41,1620.41,1620.41,1620.41,1620.41,1620.41,1620.41,1620.41,1620.41,1620.41,1620.41,1620.41,1620.41,1620.41,1620.41,1620.41,1620.41,1620.41,1620.41,1620.41,1620.41,1620.41,1620.41,1620.41,1620.41,1620.41,1620.41,1620.41,1620.41,1620.41,1620.41,1620.41,1620.41,1620.41,1620.41,1620.41,1620.41,1620.41,1620.41,1620.41,1620.41,1620.41,1620.41,1620.41,1620.41,1620.41,1620.41,1620.41,1620.41,1620.41,1620.41,1620.41,1620.41,1620.41,1620.41,1620.41,1620.41,1620.41,1620.41,1620.41,1620.41,1620.41,1620.41,1620.41,1620.41,1620.41,1620.41,1620.41,1620.41,1620.41,1620.41,1620.41,1620.41,1620.41,1620.41,1620.41,1620.41,1620.41,1620.41,1620.41,1620.41,1620.41,1620.41,1620.41,1620.41,1620.41,1620.41,1620.41,1620.41,1620.41,1620.41,1620.41,1620.41,1620.41,1620.41,1620.41,1620.41,1620.41,1620.41,1620.41,1620.41,1620.41,1620.41,1620.41,1620.41,1620.41,1620.41,1620.41,1620.41,1620.41,1620.41,1620.41,1620.41,1620.41,1620.41,1620.41,1620.41,1620.41,1620.41,1620.41,1620.41,1620.41,1620.41,1620.41,1620.41,1620.41,1620.41,1620.41,1620.41,1620.41,1620.41,1620.41,1620.41,1620.41,1620.41,1620.41,1620.41,1620.41,1620.41,1620.41,1620.41,1620.41,1620.41,1620.41,1620.41,1620.41,1620.41,1620.41,1620.41,1620.41,1620.41,1620.41,1620.41,1620.41,1620.41,1620.41,1620.41,1620.41,1620.41,1620.41,1620.41,1620.41,1620.41,1620.41,1620.41,1620.41,1620.41,1620.41,1620.41,1620.41,1620.41,1620.41,1620.41,1620.41,1620.41,1620.41,1620.41,1620.41,1620.41,1620.41,1620.41,1620.41,1620.41,1620.41,1620.41,1620.41,1620.41,1620.41,1620.41,1620.41,1620.41,1620.41,1620.41,1620.41,1620.41,1620.41,1620.41,1620.41,1620.41,1620.41,1620.41,1620.41,1620.41,1620.41,1620.41,1620.41,1620.41,1620.41,1620.41,1620.41,1620.41,1620.41,1620.41,1620.41,1620.41,1620.41,1620.41,1620.41,1620.41,1620.41,1620.41,1620.41,1620.41,1620.41,1620.41,1620.41,1620.41,1620.41,1620.41,1620.41,1620.41,1620.41,1620.41,1620.41,1620.41,1620.41,1620.41,1620.41,1620.41,1620.41,1620.41,1620.41,1620.41,1620.41,1620.41,1620.41,1620.41,1620.41,1620.41,1620.41,1620.41,1620.41,1620.41,1620.41,1620.41,1620.41,1620.41,1620.41,1620.41,1620.41,1620.41,1620.41,1620.41,1620.41,1620.41,1620.41,1620.41,1620.41,1620.41,1620.41,1620.41,1620.41,1620.41,1620.41,1620.41,1620.41,1620.41,1620.41,1620.41,1620.41,1620.41,1620.41,1620.41,1620.41,1620.41,1620.41,1620.41,1620.41,1620.41,1620.41,1620.41,1620.41,1620.41,1620.41,1620.41,1620.41,1620.41,1620.41,1620.41,1620.41,1620.41,1620.41,1620.41,1620.41,1620.41,1620.41,1620.41,1620.41,1620.41,1620.41,1620.41,1620.41,1620.41,1620.41,1620.41,1620.41,1620.41,1620.41,1620.41,1620.41,1620.41,1620.41,1620.41,1620.41,1620.41,1620.41,1620.41,1620.41,1620.41,1620.41,1620.41,1620.41,1620.41,1620.41,1620.41,1620.41,1620.41,1620.41,1620.41,1620.41,1620.41,1620.41,1620.41,1620.41,1620.41,1620.41,1620.41,1620.41,1620.41,1620.41,1620.41,1620.41,1620.41,1620.41,1620.41,1620.41,1620.41,1620.41,1620.41,1620.41,1620.41,1620.41,1620.41,1620.41,1620.41,1620.41,1620.41,1620.41,1620.41,1620.41,1620.41,1620.41,1620.41,1620.41,1620.41,1620.41,1620.41,1620.41,1620.41,1620.41,1620.41,1620.41,1620.41,